p edge 178 13 356
e 1 5
e 1 13
e 2 5
e 2 13
e 3 5
e 3 13
e 4 5
e 4 13
e 5 5
e 5 13
e 6 5
e 6 13
e 7 5
e 7 13
e 8 5
e 8 13
e 9 5
e 9 13
e 10 5
e 10 13
e 11 5
e 11 13
e 12 5
e 12 13
e 13 5
e 13 13
e 14 5
e 14 13
e 15 5
e 15 13
e 16 5
e 16 13
e 17 5
e 17 13
e 18 5
e 18 13
e 19 5
e 19 13
e 20 5
e 20 13
e 21 5
e 21 13
e 22 5
e 22 13
e 23 5
e 23 13
e 24 5
e 24 13
e 25 5
e 25 13
e 26 5
e 26 13
e 27 5
e 27 13
e 28 5
e 28 13
e 29 5
e 29 13
e 30 5
e 30 13
e 31 5
e 31 13
e 32 5
e 32 13
e 33 5
e 33 13
e 34 5
e 34 13
e 35 5
e 35 13
e 36 5
e 36 13
e 37 5
e 37 13
e 38 5
e 38 13
e 39 5
e 39 13
e 40 5
e 40 13
e 41 5
e 41 13
e 42 5
e 42 13
e 43 5
e 43 13
e 44 5
e 44 13
e 45 5
e 45 13
e 46 5
e 46 13
e 47 5
e 47 13
e 48 5
e 48 13
e 49 5
e 49 13
e 50 5
e 50 13
e 51 5
e 51 13
e 52 5
e 52 13
e 53 5
e 53 13
e 54 5
e 54 13
e 55 5
e 55 13
e 56 5
e 56 13
e 57 5
e 57 13
e 58 5
e 58 13
e 59 5
e 59 13
e 60 5
e 60 13
e 61 5
e 61 13
e 62 5
e 62 13
e 63 5
e 63 13
e 64 5
e 64 13
e 65 5
e 65 13
e 66 5
e 66 13
e 67 5
e 67 13
e 68 5
e 68 13
e 69 5
e 69 13
e 70 5
e 70 13
e 71 5
e 71 13
e 72 5
e 72 13
e 73 5
e 73 13
e 74 5
e 74 13
e 75 5
e 75 13
e 76 5
e 76 13
e 77 5
e 77 13
e 78 5
e 78 13
e 79 5
e 79 13
e 80 5
e 80 13
e 81 5
e 81 13
e 82 5
e 82 13
e 83 5
e 83 13
e 84 5
e 84 13
e 85 5
e 85 13
e 86 5
e 86 13
e 87 5
e 87 13
e 88 5
e 88 13
e 89 5
e 89 13
e 90 5
e 90 13
e 91 5
e 91 13
e 92 5
e 92 13
e 93 5
e 93 13
e 94 5
e 94 13
e 95 5
e 95 13
e 96 5
e 96 13
e 97 5
e 97 13
e 98 5
e 98 13
e 99 5
e 99 13
e 100 5
e 100 13
e 101 5
e 101 13
e 102 5
e 102 13
e 103 5
e 103 13
e 104 5
e 104 13
e 105 5
e 105 13
e 106 5
e 106 13
e 107 5
e 107 13
e 108 5
e 108 13
e 109 5
e 109 13
e 110 5
e 110 13
e 111 5
e 111 13
e 112 5
e 112 13
e 113 5
e 113 13
e 114 5
e 114 13
e 115 5
e 115 13
e 116 5
e 116 13
e 117 5
e 117 13
e 118 5
e 118 13
e 119 5
e 119 13
e 120 5
e 120 13
e 121 5
e 121 13
e 122 5
e 122 13
e 123 5
e 123 13
e 124 5
e 124 13
e 125 5
e 125 13
e 126 5
e 126 13
e 127 5
e 127 13
e 128 5
e 128 13
e 129 5
e 129 13
e 130 5
e 130 13
e 131 5
e 131 13
e 132 5
e 132 13
e 133 5
e 133 13
e 134 5
e 134 13
e 135 5
e 135 13
e 136 5
e 136 13
e 137 5
e 137 13
e 138 5
e 138 13
e 139 5
e 139 13
e 140 5
e 140 13
e 141 5
e 141 13
e 142 5
e 142 13
e 143 5
e 143 13
e 144 5
e 144 13
e 145 5
e 145 13
e 146 5
e 146 13
e 147 5
e 147 13
e 148 5
e 148 13
e 149 5
e 149 13
e 150 5
e 150 13
e 151 5
e 151 13
e 152 5
e 152 13
e 153 5
e 153 13
e 154 5
e 154 13
e 155 5
e 155 13
e 156 5
e 156 13
e 157 5
e 157 13
e 158 5
e 158 13
e 159 5
e 159 13
e 160 5
e 160 13
e 161 5
e 161 13
e 162 5
e 162 13
e 163 5
e 163 13
e 164 5
e 164 13
e 165 5
e 165 13
e 166 5
e 166 13
e 167 5
e 167 13
e 168 5
e 168 13
e 169 5
e 169 13
e 170 5
e 170 13
e 171 5
e 171 13
e 172 5
e 172 13
e 173 5
e 173 13
e 174 5
e 174 13
e 175 5
e 175 13
e 176 5
e 176 13
e 177 5
e 177 13
e 178 5
e 178 13
